75
[7,8,9,10,11,12,13,14,15,16,17,18,19,20,21,22,23,24,25,26,27,28,29,30,31,32,33,34,35,36,37,38,39,40,41,42,43,44,45,46,47,48,49,50,51,52,53,54,55,56,57,58,59,60]
[18,16,13,19,20,14,18,18,20,21,19,21,19,23,20,18,14,14,21,17,16,17,9,20,15,19,14,13,22,22,20,25,17,19,18,16,18,16,24,15,21,19,18,23,18,29,20,23,22,23,16,13,13,24]
